# Solution for model problem_
# Objective value = 9.8924770357150308e+04
x(0_0) 0
x(0_1) 0
x(0_2) 0
x(0_3) 0
x(0_4) 0
x(0_5) 0
x(0_6) 0
x(0_7) 0
x(0_8) 1
x(0_9) 0
x(0_10) 0
x(1_11) 0
x(1_12) 0
x(1_13) 1
x(1_14) 0
x(1_15) 0
x(1_16) 0
x(1_17) 0
x(1_18) 0
x(1_19) 0
x(1_20) 0
x(1_21) 0
x(1_22) 0
x(1_23) 0
x(1_24) 0
x(1_25) 0
x(1_26) 0
x(1_27) 0
x(1_28) 0
x(2_29) 0
x(2_30) 0
x(2_31) 0
x(2_32) 0
x(2_33) 0
x(2_34) 0
x(2_35) 0
x(2_36) 0
x(2_37) 0
x(2_38) 0
x(2_39) 0
x(2_40) 0
x(2_41) 1
x(3_42) 1
x(3_43) 0
x(3_44) 0
x(3_45) 0
x(3_46) 0
x(3_47) 0
x(3_48) 0
x(3_49) 0
x(3_50) 0
x(3_51) 0
x(3_52) 0
x(3_53) 0
x(4_54) 0
x(4_55) 1
x(4_56) 0
x(4_57) 0
x(4_58) 0
x(4_59) 0
x(4_60) 0
x(4_61) 0
x(4_62) 0
x(4_63) 0
x(5_64) 0
x(5_65) 0
x(5_66) 0
x(5_67) 0
x(5_68) 0
x(5_69) 0
x(5_70) 1
x(5_71) 0
x(5_72) 0
x(5_73) 0
x(5_74) 0
x(5_75) 0
x(5_76) 0
x(5_77) 0
x(5_78) 0
x(5_79) 0
x(6_80) 0
x(6_81) 0
x(6_82) 0
x(6_83) 0
x(6_84) 1
x(6_85) 0
x(6_86) 0
x(6_87) 0
x(6_88) 0
x(6_89) 0
x(6_90) 0
x(6_91) 0
x(6_92) 0
x(6_93) 0
x(6_94) 0
x(6_95) 0
x(7_96) 1
x(7_97) 0
x(7_98) 0
x(7_99) 0
x(7_100) 0
x(7_101) 0
x(7_102) 0
x(7_103) 0
x(7_104) 0
x(7_105) 0
x(7_106) 0
x(7_107) 0
x(7_108) 0
x(7_109) 0
x(8_110) 0
x(8_111) 0
x(8_112) 0
x(8_113) 0
x(8_114) 0
x(8_115) 0
x(8_116) 0
x(8_117) 1
x(8_118) 0
x(8_119) 0
x(8_120) 0
x(8_121) 0
x(8_122) 0
x(9_123) 0
x(9_124) 0
x(9_125) 0
x(9_126) 0
x(9_127) 0
x(9_128) 0
x(9_129) 0
x(9_130) 0
x(9_131) 0
x(9_132) 0
x(9_133) 1
x(9_134) 0
x(9_135) 0
x(9_136) 0
x(9_137) 0
x(9_138) 0
x(10_139) 0
x(10_140) 0
x(10_141) 0
x(10_142) 0
x(10_143) 0
x(10_144) 0
x(10_145) 0
x(10_146) 0
x(10_147) 0
x(10_148) 1
x(10_149) 0
x(11_150) 0
x(11_151) 0
x(11_152) 0
x(11_153) 0
x(11_154) 1
x(11_155) 0
x(11_156) 0
x(11_157) 0
x(11_158) 0
x(11_159) 0
x(11_160) 0
x(11_161) 0
x(12_162) 0
x(12_163) 0
x(12_164) 1
x(12_165) 0
x(12_166) 0
x(12_167) 0
x(12_168) 0
x(12_169) 0
x(12_170) 0
x(12_171) 0
x(12_172) 0
x(12_173) 0
x(12_174) 0
x(12_175) 0
x(12_176) 0
x(12_177) 0
x(12_178) 0
x(13_179) 1
x(13_180) 0
x(13_181) 0
x(13_182) 0
x(13_183) 0
x(13_184) 0
x(13_185) 0
x(13_186) 0
x(13_187) 0
x(13_188) 0
x(13_189) 0
x(13_190) 0
x(13_191) 0
x(13_192) 0
x(13_193) 0
x(13_194) 0
x(14_195) 1
x(14_196) 0
x(14_197) 0
x(14_198) 0
x(14_199) 0
x(14_200) 0
x(14_201) 0
x(14_202) 0
x(14_203) 0
x(14_204) 0
x(14_205) 0
x(14_206) 0
x(14_207) 0
x(14_208) 0
x(14_209) 0
x(14_210) 0
x(14_211) 0
x(14_212) 0
x(15_213) 0
x(15_214) 0
x(15_215) 0
x(15_216) 0
x(15_217) 0
x(15_218) 0
x(15_219) 0
x(15_220) 0
x(15_221) 0
x(15_222) 0
x(15_223) 0
x(15_224) 0
x(15_225) 0
x(15_226) 0
x(15_227) 0
x(15_228) 0
x(15_229) 0
x(15_230) 0
x(15_231) 1
x(15_232) 0
x(16_233) 0
x(16_234) 0
x(16_235) 0
x(16_236) 0
x(16_237) 0
x(16_238) 0
x(16_239) 0
x(16_240) 0
x(16_241) 0
x(16_242) 0
x(16_243) 0
x(16_244) 0
x(16_245) 1
x(17_246) 0
x(17_247) 0
x(17_248) 0
x(17_249) 0
x(17_250) 0
x(17_251) 0
x(17_252) 0
x(17_253) 0
x(17_254) 0
x(17_255) 1
x(17_256) 0
x(17_257) 0
x(17_258) 0
x(18_259) 0
x(18_260) 0
x(18_261) 0
x(18_262) 0
x(18_263) 0
x(18_264) 0
x(18_265) 0
x(18_266) 1
x(18_267) 0
x(18_268) 0
x(18_269) 0
x(18_270) 0
x(18_271) 0
x(18_272) 0
x(18_273) 0
x(18_274) 0
x(18_275) 0
x(18_276) 0
x(19_277) 0
x(19_278) 0
x(19_279) 0
x(19_280) 0
x(19_281) 0
x(19_282) 0
x(19_283) 1
x(19_284) 0
x(19_285) 0
x(19_286) 0
x(19_287) 0
x(20_288) 0
x(20_289) 0
x(20_290) 1
x(20_291) 0
x(20_292) 0
x(20_293) 0
x(20_294) 0
x(20_295) 0
x(20_296) 0
x(20_297) 0
x(20_298) 0
x(20_299) 0
x(21_300) 0
x(21_301) 1
x(21_302) 0
x(21_303) 0
x(21_304) 0
x(21_305) 0
x(21_306) 0
x(21_307) 0
x(21_308) 0
x(21_309) 0
x(21_310) 0
x(21_311) 0
x(21_312) 0
x(21_313) 0
x(21_314) 0
x(21_315) 0
x(21_316) 0
x(22_317) 1
x(22_318) 0
x(22_319) 0
x(22_320) 0
x(22_321) 0
x(22_322) 0
x(22_323) 0
x(22_324) 0
x(22_325) 0
x(22_326) 0
x(22_327) 0
x(22_328) 0
x(22_329) 0
x(22_330) 0
x(22_331) 0
x(22_332) 0
x(22_333) 0
x(22_334) 0
x(22_335) 0
x(23_336) 0
x(23_337) 0
x(23_338) 0
x(23_339) 0
x(23_340) 0
x(23_341) 0
x(23_342) 0
x(23_343) 0
x(23_344) 1
x(23_345) 0
x(23_346) 0
x(24_347) 0
x(24_348) 0
x(24_349) 0
x(24_350) 0
x(24_351) 0
x(24_352) 0
x(24_353) 0
x(24_354) 0
x(24_355) 0
x(24_356) 0
x(24_357) 1
x(24_358) 0
x(24_359) 0
x(24_360) 0
x(24_361) 0
x(24_362) 0
x(24_363) 0
x(24_364) 0
x(24_365) 0
x(24_366) 0
x(25_367) 0
x(25_368) 0
x(25_369) 0
x(25_370) 0
x(25_371) 0
x(25_372) 0
x(25_373) 0
x(25_374) 0
x(25_375) 0
x(25_376) 0
x(25_377) 0
x(25_378) 1
x(25_379) 0
x(26_380) 0
x(26_381) 0
x(26_382) 0
x(26_383) 0
x(26_384) 0
x(26_385) 0
x(26_386) 0
x(26_387) 0
x(26_388) 0
x(26_389) 0
x(26_390) 0
x(26_391) 1
x(26_392) 0
x(26_393) 0
x(26_394) 0
x(26_395) 0
x(26_396) 0
x(26_397) 0
x(26_398) 0
x(27_399) 0
x(27_400) 0
x(27_401) 0
x(27_402) 0
x(27_403) 0
x(27_404) 1
x(27_405) 0
x(27_406) 0
x(27_407) 0
x(27_408) 0
x(27_409) 0
x(27_410) 0
x(27_411) 0
x(28_412) 0
x(28_413) 0
x(28_414) 0
x(28_415) 0
x(28_416) 0
x(28_417) 0
x(28_418) 0
x(28_419) 0
x(28_420) 1
x(28_421) 0
x(29_422) 1
x(29_423) 0
x(29_424) 0
x(29_425) 0
x(29_426) 0
x(29_427) 0
x(29_428) 0
x(29_429) 0
x(29_430) 0
x(29_431) 0
x(29_432) 0
x(29_433) 0
x(29_434) 0
x(29_435) 0
x(30_436) 0
x(30_437) 0
x(30_438) 0
x(30_439) 0
x(30_440) 0
x(30_441) 0
x(30_442) 0
x(30_443) 0
x(30_444) 0
x(30_445) 1
x(30_446) 0
x(31_447) 0
x(31_448) 0
x(31_449) 0
x(31_450) 0
x(31_451) 0
x(31_452) 0
x(31_453) 0
x(31_454) 0
x(31_455) 0
x(31_456) 0
x(31_457) 0
x(31_458) 0
x(31_459) 0
x(31_460) 0
x(31_461) 1
x(31_462) 0
x(32_463) 0
x(32_464) 0
x(32_465) 0
x(32_466) 0
x(32_467) 0
x(32_468) 0
x(32_469) 0
x(32_470) 0
x(32_471) 0
x(32_472) 0
x(32_473) 0
x(32_474) 0
x(32_475) 0
x(32_476) 0
x(32_477) 0
x(32_478) 1
x(33_479) 0
x(33_480) 0
x(33_481) 0
x(33_482) 0
x(33_483) 0
x(33_484) 0
x(33_485) 0
x(33_486) 0
x(33_487) 0
x(33_488) 0
x(33_489) 0
x(33_490) 1
x(33_491) 0
x(33_492) 0
x(33_493) 0
x(33_494) 0
x(33_495) 0
x(33_496) 0
x(34_497) 0
x(34_498) 0
x(34_499) 0
x(34_500) 0
x(34_501) 1
x(34_502) 0
x(34_503) 0
x(34_504) 0
x(34_505) 0
x(34_506) 0
x(34_507) 0
x(34_508) 0
x(34_509) 0
x(34_510) 0
x(34_511) 0
x(34_512) 0
x(34_513) 0
x(34_514) 0
x(34_515) 0
x(35_516) 0
x(35_517) 0
x(35_518) 1
x(35_519) 0
x(35_520) 0
x(35_521) 0
x(35_522) 0
x(35_523) 0
x(35_524) 0
x(35_525) 0
x(36_526) 0
x(36_527) 0
x(36_528) 0
x(36_529) 0
x(36_530) 1
x(36_531) 0
x(36_532) 0
x(36_533) 0
x(36_534) 0
x(36_535) 0
x(36_536) 0
x(36_537) 0
x(36_538) 0
x(37_539) 0
x(37_540) 0
x(37_541) 0
x(37_542) 1
x(37_543) 0
x(37_544) 0
x(37_545) 0
x(37_546) 0
x(37_547) 0
x(37_548) 0
x(37_549) 0
x(37_550) 0
x(37_551) 0
x(37_552) 0
x(37_553) 0
x(37_554) 0
x(37_555) 0
x(37_556) 0
x(37_557) 0
x(37_558) 0
x(38_559) 0
x(38_560) 0
x(38_561) 0
x(38_562) 0
x(38_563) 0
x(38_564) 0
x(38_565) 0
x(38_566) 0
x(38_567) 0
x(38_568) 0
x(38_569) 0
x(38_570) 0
x(38_571) 0
x(38_572) 0
x(38_573) 0
x(38_574) 0
x(38_575) 0
x(38_576) 1
x(39_577) 0
x(39_578) 0
x(39_579) 0
x(39_580) 0
x(39_581) 0
x(39_582) 0
x(39_583) 0
x(39_584) 0
x(39_585) 1
x(39_586) 0
x(39_587) 0
x(39_588) 0
x(39_589) 0
x(40_590) 0
x(40_591) 0
x(40_592) 0
x(40_593) 0
x(40_594) 0
x(40_595) 0
x(40_596) 0
x(40_597) 0
x(40_598) 0
x(40_599) 1
x(40_600) 0
x(41_601) 0
x(41_602) 0
x(41_603) 0
x(41_604) 0
x(41_605) 0
x(41_606) 0
x(41_607) 0
x(41_608) 1
x(41_609) 0
x(41_610) 0
x(41_611) 0
x(41_612) 0
x(41_613) 0
x(41_614) 0
x(41_615) 0
x(41_616) 0
x(41_617) 0
x(41_618) 0
x(41_619) 0
x(42_620) 0
x(42_621) 0
x(42_622) 0
x(42_623) 0
x(42_624) 0
x(42_625) 0
x(42_626) 0
x(42_627) 0
x(42_628) 0
x(42_629) 0
x(42_630) 0
x(42_631) 0
x(42_632) 0
x(42_633) 0
x(42_634) 0
x(42_635) 1
x(42_636) 0
x(42_637) 0
x(43_638) 0
x(43_639) 0
x(43_640) 0
x(43_641) 0
x(43_642) 0
x(43_643) 0
x(43_644) 0
x(43_645) 0
x(43_646) 1
x(43_647) 0
x(43_648) 0
x(43_649) 0
x(43_650) 0
x(43_651) 0
x(43_652) 0
x(43_653) 0
x(43_654) 0
x(43_655) 0
x(43_656) 0
x(43_657) 0
x(44_658) 0
x(44_659) 0
x(44_660) 0
x(44_661) 0
x(44_662) 0
x(44_663) 0
x(44_664) 1
x(44_665) 0
x(44_666) 0
x(44_667) 0
x(44_668) 0
x(44_669) 0
x(44_670) 0
x(44_671) 0
x(44_672) 0
x(44_673) 0
x(44_674) 0
x(45_675) 0
x(45_676) 0
x(45_677) 0
x(45_678) 0
x(45_679) 0
x(45_680) 0
x(45_681) 0
x(45_682) 0
x(45_683) 0
x(45_684) 0
x(45_685) 0
x(45_686) 1
x(45_687) 0
x(45_688) 0
x(45_689) 0
x(45_690) 0
x(45_691) 0
x(45_692) 0
x(46_693) 0
x(46_694) 0
x(46_695) 0
x(46_696) 0
x(46_697) 0
x(46_698) 0
x(46_699) 0
x(46_700) 1
x(46_701) 0
x(46_702) 0
x(46_703) 0
x(46_704) 0
x(46_705) 0
x(47_706) 0
x(47_707) 0
x(47_708) 0
x(47_709) 0
x(47_710) 0
x(47_711) 0
x(47_712) 0
x(47_713) 0
x(47_714) 0
x(47_715) 0
x(47_716) 0
x(47_717) 0
x(47_718) 1
x(47_719) 0
x(47_720) 0
x(47_721) 0
x(47_722) 0
x(47_723) 0
x(47_724) 0
x(48_725) 0
x(48_726) 0
x(48_727) 0
x(48_728) 0
x(48_729) 0
x(48_730) 1
x(48_731) 0
x(48_732) 0
x(48_733) 0
x(48_734) 0
x(48_735) 0
x(48_736) 0
x(48_737) 0
x(48_738) 0
x(48_739) 0
x(48_740) 0
x(49_741) 0
x(49_742) 0
x(49_743) 0
x(49_744) 0
x(49_745) 0
x(49_746) 0
x(49_747) 0
x(49_748) 0
x(49_749) 0
x(49_750) 0
x(49_751) 0
x(49_752) 0
x(49_753) 0
x(49_754) 0
x(49_755) 1
x(49_756) 0
x(49_757) 0
x(50_758) 0
x(50_759) 0
x(50_760) 0
x(50_761) 0
x(50_762) 0
x(50_763) 0
x(50_764) 0
x(50_765) 0
x(50_766) 0
x(50_767) 1
x(51_768) 0
x(51_769) 1
x(51_770) 0
x(51_771) 0
x(51_772) 0
x(51_773) 0
x(51_774) 0
x(51_775) 0
x(51_776) 0
x(51_777) 0
x(51_778) 0
x(51_779) 0
x(51_780) 0
x(51_781) 0
x(51_782) 0
x(52_783) 0
x(52_784) 0
x(52_785) 0
x(52_786) 0
x(52_787) 0
x(52_788) 0
x(52_789) 1
x(52_790) 0
x(52_791) 0
x(52_792) 0
x(52_793) 0
x(52_794) 0
x(52_795) 0
x(52_796) 0
x(53_797) 0
x(53_798) 1
x(53_799) 0
x(53_800) 0
x(53_801) 0
x(53_802) 0
x(53_803) 0
x(53_804) 0
x(53_805) 0
x(53_806) 0
x(53_807) 0
x(53_808) 0
x(54_809) 0
x(54_810) 1
x(54_811) 0
x(54_812) 0
x(54_813) 0
x(54_814) 0
x(54_815) 0
x(54_816) 0
x(54_817) 0
x(54_818) 0
x(54_819) 0
x(54_820) 0
x(54_821) 0
x(54_822) 0
x(54_823) 0
x(54_824) 0
x(55_825) 0
x(55_826) 0
x(55_827) 0
x(55_828) 0
x(55_829) 0
x(55_830) 0
x(55_831) 0
x(55_832) 0
x(55_833) 0
x(55_834) 0
x(55_835) 1
x(55_836) 0
x(56_837) 0
x(56_838) 0
x(56_839) 0
x(56_840) 0
x(56_841) 0
x(56_842) 0
x(56_843) 0
x(56_844) 0
x(56_845) 0
x(56_846) 0
x(56_847) 0
x(56_848) 0
x(56_849) 0
x(56_850) 0
x(56_851) 0
x(56_852) 0
x(56_853) 1
x(56_854) 0
x(56_855) 0
x(57_856) 0
x(57_857) 0
x(57_858) 0
x(57_859) 1
x(57_860) 0
x(57_861) 0
x(57_862) 0
x(57_863) 0
x(57_864) 0
x(57_865) 0
x(57_866) 0
x(57_867) 0
x(58_868) 1
x(58_869) 0
x(58_870) 0
x(58_871) 0
x(58_872) 0
x(58_873) 0
x(58_874) 0
x(58_875) 0
x(58_876) 0
x(58_877) 0
x(58_878) 0
x(58_879) 0
x(58_880) 0
x(59_881) 0
x(59_882) 1
x(59_883) 0
x(59_884) 0
x(59_885) 0
x(59_886) 0
x(59_887) 0
x(59_888) 0
x(59_889) 0
x(59_890) 0
x(59_891) 0
x(59_892) 0
x(59_893) 0
x(59_894) 0
x(59_895) 0
x(59_896) 0
x(59_897) 0
x(59_898) 0
x(60_899) 0
x(60_900) 0
x(60_901) 0
x(60_902) 0
x(60_903) 0
x(60_904) 0
x(60_905) 0
x(60_906) 1
x(60_907) 0
x(60_908) 0
x(60_909) 0
x(60_910) 0
x(60_911) 0
x(60_912) 0
x(61_913) 0
x(61_914) 0
x(61_915) 0
x(61_916) 0
x(61_917) 0
x(61_918) 0
x(61_919) 0
x(61_920) 0
x(61_921) 1
x(61_922) 0
x(61_923) 0
x(61_924) 0
x(61_925) 0
x(61_926) 0
x(62_927) 0
x(62_928) 0
x(62_929) 0
x(62_930) 0
x(62_931) 0
x(62_932) 0
x(62_933) 0
x(62_934) 0
x(62_935) 0
x(62_936) 0
x(62_937) 0
x(62_938) 0
x(62_939) 0
x(62_940) 1
x(62_941) 0
x(62_942) 0
x(62_943) 0
x(62_944) 0
x(63_945) 1
x(63_946) 0
x(63_947) 0
x(63_948) 0
x(63_949) 0
x(63_950) 0
x(63_951) 0
x(63_952) 0
x(63_953) 0
x(63_954) 0
x(63_955) 0
x(63_956) 0
x(63_957) 0
x(63_958) 0
x(63_959) 0
x(63_960) 0
x(63_961) 0
x(64_962) 0
x(64_963) 0
x(64_964) 0
x(64_965) 0
x(64_966) 0
x(64_967) 0
x(64_968) 0
x(64_969) 1
x(64_970) 0
x(64_971) 0
x(64_972) 0
x(64_973) 0
x(65_974) 0
x(65_975) 0
x(65_976) 0
x(65_977) 0
x(65_978) 0
x(65_979) 0
x(65_980) 0
x(65_981) 0
x(65_982) 0
x(65_983) 0
x(65_984) 1
x(66_985) 0
x(66_986) 0
x(66_987) 0
x(66_988) 1
x(66_989) 0
x(66_990) 0
x(66_991) 0
x(66_992) 0
x(66_993) 0
x(66_994) 0
x(66_995) 0
x(66_996) 0
x(66_997) 0
x(66_998) 0
x(66_999) 0
x(66_1000) 0
x(67_1001) 0
x(67_1002) 0
x(67_1003) 0
x(67_1004) 0
x(67_1005) 0
x(67_1006) 0
x(67_1007) 0
x(67_1008) 0
x(67_1009) 0
x(67_1010) 0
x(67_1011) 0
x(67_1012) 0
x(67_1013) 0
x(67_1014) 1
x(67_1015) 0
x(68_1016) 0
x(68_1017) 0
x(68_1018) 0
x(68_1019) 0
x(68_1020) 1
x(68_1021) 0
x(68_1022) 0
x(68_1023) 0
x(68_1024) 0
x(68_1025) 0
x(68_1026) 0
x(68_1027) 0
x(68_1028) 0
x(68_1029) 0
x(69_1030) 0
x(69_1031) 0
x(69_1032) 0
x(69_1033) 0
x(69_1034) 0
x(69_1035) 0
x(69_1036) 0
x(69_1037) 0
x(69_1038) 0
x(69_1039) 0
x(69_1040) 1
x(69_1041) 0
x(69_1042) 0
x(69_1043) 0
x(69_1044) 0
x(69_1045) 0
x(70_1046) 0
x(70_1047) 0
x(70_1048) 0
x(70_1049) 0
x(70_1050) 0
x(70_1051) 0
x(70_1052) 0
x(70_1053) 1
x(70_1054) 0
x(70_1055) 0
x(70_1056) 0
x(70_1057) 0
x(70_1058) 0
x(70_1059) 0
x(70_1060) 0
x(70_1061) 0
x(70_1062) 0
x(70_1063) 0
x(71_1064) 0
x(71_1065) 0
x(71_1066) 0
x(71_1067) 0
x(71_1068) 0
x(71_1069) 0
x(71_1070) 1
x(71_1071) 0
x(71_1072) 0
x(71_1073) 0
x(71_1074) 0
x(71_1075) 0
x(71_1076) 0
x(71_1077) 0
x(72_1078) 0
x(72_1079) 1
x(72_1080) 0
x(72_1081) 0
x(72_1082) 0
x(72_1083) 0
x(72_1084) 0
x(72_1085) 0
x(72_1086) 0
x(72_1087) 0
x(72_1088) 0
x(73_1089) 1
x(73_1090) 0
x(73_1091) 0
x(73_1092) 0
x(73_1093) 0
x(73_1094) 0
x(73_1095) 0
x(73_1096) 0
x(73_1097) 0
x(73_1098) 0
x(73_1099) 0
x(73_1100) 0
x(73_1101) 0
x(73_1102) 0
x(73_1103) 0
x(74_1104) 0
x(74_1105) 0
x(74_1106) 0
x(74_1107) 0
x(74_1108) 0
x(74_1109) 0
x(74_1110) 0
x(74_1111) 1
x(74_1112) 0
x(74_1113) 0
x(75_1114) 0
x(75_1115) 0
x(75_1116) 1
x(75_1117) 0
x(75_1118) 0
x(75_1119) 0
x(75_1120) 0
x(75_1121) 0
x(75_1122) 0
x(75_1123) 0
x(75_1124) 0
x(75_1125) 0
x(75_1126) 0
x(75_1127) 0
x(75_1128) 0
x(75_1129) 0
x(75_1130) 0
x(76_1131) 0
x(76_1132) 0
x(76_1133) 0
x(76_1134) 0
x(76_1135) 0
x(76_1136) 0
x(76_1137) 0
x(76_1138) 0
x(76_1139) 0
x(76_1140) 0
x(76_1141) 1
x(77_1142) 0
x(77_1143) 0
x(77_1144) 0
x(77_1145) 0
x(77_1146) 0
x(77_1147) 0
x(77_1148) 0
x(77_1149) 0
x(77_1150) 0
x(77_1151) 0
x(77_1152) 0
x(77_1153) 1
x(77_1154) 0
x(77_1155) 0
x(77_1156) 0
x(77_1157) 0
x(77_1158) 0
x(77_1159) 0
x(78_1160) 0
x(78_1161) 1
x(78_1162) 0
x(78_1163) 0
x(78_1164) 0
x(78_1165) 0
x(78_1166) 0
x(78_1167) 0
x(78_1168) 0
x(78_1169) 0
x(78_1170) 0
x(78_1171) 0
x(79_1172) 0
x(79_1173) 0
x(79_1174) 0
x(79_1175) 0
x(79_1176) 0
x(79_1177) 0
x(79_1178) 0
x(79_1179) 1
x(79_1180) 0
x(79_1181) 0
x(79_1182) 0
x(79_1183) 0
x(79_1184) 0
x(79_1185) 0
x(79_1186) 0
x(79_1187) 0
x(79_1188) 0
x(79_1189) 0
x(79_1190) 0
x(79_1191) 0
x(80_1192) 0
x(80_1193) 0
x(80_1194) 0
x(80_1195) 0
x(80_1196) 0
x(80_1197) 0
x(80_1198) 0
x(80_1199) 0
x(80_1200) 0
x(80_1201) 0
x(80_1202) 0
x(80_1203) 0
x(80_1204) 0
x(80_1205) 0
x(80_1206) 1
x(80_1207) 0
x(81_1208) 0
x(81_1209) 0
x(81_1210) 1
x(81_1211) 0
x(81_1212) 0
x(81_1213) 0
x(81_1214) 0
x(81_1215) 0
x(81_1216) 0
x(81_1217) 0
x(81_1218) 0
x(81_1219) 0
x(81_1220) 0
x_1_0 2.6958860777503287e+02
s_1_0 0
z_1_0 9.9730411392224960e-01
x_1_1 2.7268759488314390e+02
s_1_1 0
z_1_1 9.9727312405116852e-01
x_1_2 2.7483390825008973e+02
s_1_2 0
z_1_2 9.9725166091749917e-01
x_1_3 2.7096914351917803e+02
s_1_3 0
z_1_3 9.9729030856480827e-01
x_1_4 2.7213593526954355e+02
s_1_4 0
z_1_4 9.9727864064730454e-01
x_1_5 0
s_1_5 1.5223545006010681e+00
z_1_5 1
x_1_6 2.7153098695469089e+02
s_1_6 0
z_1_6 9.9728469013045307e-01
x_1_7 0
s_1_7 1.4988515880249906e+00
z_1_7 1
x_1_8 0
s_1_8 1.1457092922646552e+00
z_1_8 1
x_1_9 4.9999276401747142e+04
s_1_9 5.0000723598252865e+04
z_1_9 5.0000723598252861e-01
x_1_10 49999.1602419255
s_1_10 50000.8397580745
z_1_10 0.500008397580745
x_1_11 2.7295925075559353e+02
s_1_11 0
z_1_11 0.997270407492444
x_1_12 2.7252671404089779e+02
s_1_12 0
z_1_12 0.997274732859591
x_1_13 0
s_1_13 1.1622707099886611e+00
z_1_13 1
x_1_14 4.9999371316268313e+04
s_1_14 5.0000628683731687e+04
z_1_14 5.0000628683731685e-01
x_1_15 2.7338486951403320e+02
s_1_15 0
z_1_15 9.9726615130485963e-01
x_1_16 0
s_1_16 1.7512130409595557e+00
z_1_16 1
x_1_17 0
s_1_17 1.7200155398459174e+00
z_1_17 1
x_1_18 2.7302438704948872e+02
s_1_18 0
z_1_18 9.9726975612950508e-01
x_1_19 0
s_1_19 1.1704971911312896e+00
z_1_19 1
x_1_20 4.9999360124714389e+04
s_1_20 5.0000639875285618e+04
z_1_20 5.0000639875285613e-01
x_1_21 2.7381012725085020e+02
s_1_21 0
z_1_21 9.9726189872749149e-01
x_1_22 2.6414137975219637e+02
s_1_22 0
z_1_22 0.997358586202478
x_1_23 2.7187359299696982e+02
s_1_23 0
z_1_23 9.9728126407003026e-01
x_1_24 2.7111077268235385e+02
s_1_24 0
z_1_24 9.9728889227317641e-01
x_1_25 2.7459401892288588e+02
s_1_25 0
z_1_25 9.9725405981077109e-01
x_1_26 0
s_1_26 1.3840313374616926e+00
z_1_26 1
x_1_27 0
s_1_27 1.1362808697158471e+00
z_1_27 1
x_1_28 4.9999454578604229e+04
s_1_28 5.0000545421395771e+04
z_1_28 5.0000545421395770e-01
x_1_29 0
s_1_29 1.1825801089635206e+00
z_1_29 1
x_1_30 4.9999471354753943e+04
s_1_30 5.0000528645246057e+04
z_1_30 5.0000528645246056e-01
x_1_31 2.7411909018270671e+02
s_1_31 0
z_1_31 9.9725880909817288e-01
x_1_32 2.7036544523014163e+02
s_1_32 0
z_1_32 9.9729634554769853e-01
x_1_33 2.7282076358282939e+02
s_1_33 0
z_1_33 9.9727179236417174e-01
x_1_34 2.7428989705629647e+02
s_1_34 0
z_1_34 9.9725710102943710e-01
x_1_35 2.7007165106601315e+02
s_1_35 0
z_1_35 9.9729928348933994e-01
x_1_36 0
s_1_36 6.9274469872470945e-01
z_1_36 1
x_1_37 2.7176732920575887e+02
s_1_37 0
z_1_37 9.9728232670794248e-01
x_1_38 4.9999518423538284e+04
s_1_38 5.0000481576461723e+04
z_1_38 5.0000481576461719e-01
x_1_39 2.7272151438426226e+02
s_1_39 0
z_1_39 9.9727278485615733e-01
x_1_40 2.7453782455415057e+02
s_1_40 0
z_1_40 9.9725462175445856e-01
x_1_41 4.9999507574555937e+04
s_1_41 5.0000492425444070e+04
z_1_41 5.0000492425444065e-01
x_1_42 0
s_1_42 1.5766140407067724e+00
z_1_42 1
x_1_43 0
s_1_43 1.6524220007268013e+00
z_1_43 1
x_1_44 0
s_1_44 9.3337157188216224e-01
z_1_44 1
x_1_45 2.7424464300648833e+02
s_1_45 0
z_1_45 9.9725755356993517e-01
x_1_46 0
s_1_46 1.2457065770868212e+00
z_1_46 1
x_1_47 2.7488380700163543e+02
s_1_47 0
z_1_47 9.9725116192998364e-01
x_1_48 2.7433070565969683e+02
s_1_48 0
z_1_48 0.997256692943403
x_1_49 0
s_1_49 1.7304121595807374e+00
z_1_49 1
x_1_50 0
s_1_50 1.6874380076296802e+00
z_1_50 1
x_1_51 0
s_1_51 1.5018312422034796e+00
z_1_51 1
x_1_52 2.7456460207770579e+02
s_1_52 0
z_1_52 9.9725435397922291e-01
x_1_53 0
s_1_53 6.6712666428065859e-01
z_1_53 1
x_1_54 0
s_1_54 1.63429920605995
z_1_54 1
x_1_55 2.7068913038074970e+02
s_1_55 0
z_1_55 9.9729310869619248e-01
x_1_56 2.7327454620599747e+02
s_1_56 0
z_1_56 9.9726725453794007e-01
x_1_57 0
s_1_57 0.898091206967365
z_1_57 1
x_1_58 0
s_1_58 1.4389410746807698e+00
z_1_58 1
x_1_59 2.7362503507455403e+02
s_1_59 0
z_1_59 9.9726374964925446e-01
x_1_60 2.7456183842150494e+02
s_1_60 0
z_1_60 0.997254381615785
x_1_61 2.7315319916048611e+02
s_1_61 0
z_1_61 9.9726846800839519e-01
x_1_62 0
s_1_62 1.1965298638097011e+00
z_1_62 1
x_1_63 0
s_1_63 1.4346713098057080e+00
z_1_63 1
x_1_64 2.7126978810878063e+02
s_1_64 0
z_1_64 9.9728730211891226e-01
x_1_65 0
s_1_65 1.0725758709450020e+00
z_1_65 1
x_1_66 0
s_1_66 1.6689190461765975e+00
z_1_66 1
x_1_67 0
s_1_67 9.9377296946477145e-01
z_1_67 1
x_1_68 0
s_1_68 7.9030666622566059e-01
z_1_68 1
x_1_69 2.7158175342297181e+02
s_1_69 0
z_1_69 9.9728418246577022e-01
x_1_70 2.7096981095150113e+02
s_1_70 0
z_1_70 0.997290301890485
x_1_71 0
s_1_71 1.3644944078987464e+00
z_1_71 1
x_1_72 2.7098706372827291e+02
s_1_72 0
z_1_72 9.9729012936271721e-01
x_1_73 0
s_1_73 1.0755801846098620e+00
z_1_73 1
x_1_74 271.165610281736
s_1_74 0
z_1_74 9.9728834389718257e-01
x_1_75 2.7452494013123214e+02
s_1_75 0
z_1_75 9.9725475059868762e-01
x_1_76 0
s_1_76 1.6956244331086054e+00
z_1_76 1
x_1_77 0
s_1_77 1.1625708646897692e+00
z_1_77 1
x_1_78 0
s_1_78 1.3055340780992992e+00
z_1_78 1
x_1_79 0
s_1_79 1.8114314553095028e+00
z_1_79 1
x_1_80 0
s_1_80 1.4247366630006582e+00
z_1_80 1
x_1_81 2.7130918095540255e+02
s_1_81 0
z_1_81 0.997286908190446
x_1_82 2.7151619328738889e+02
s_1_82 0
z_1_82 9.9728483806712609e-01
x_1_83 0
s_1_83 1.38237307255622
z_1_83 1
x_1_84 2.7321299002598971e+02
s_1_84 0
z_1_84 9.9726787009974016e-01
x_1_85 0
s_1_85 8.4857431676937267e-01
z_1_85 1
x_1_86 0
s_1_86 4.8528249658193090e-01
z_1_86 1
x_1_87 0
s_1_87 0.801133384287823
z_1_87 1
x_1_88 0
s_1_88 9.9894171375490259e-01
z_1_88 1
x_1_89 2.6967086530011147e+02
s_1_89 0
z_1_89 9.9730329134699891e-01
x_1_90 2.7049396346881986e+02
s_1_90 0
z_1_90 9.9729506036531179e-01
x_1_91 0
s_1_91 1.0256743438949343e+00
z_1_91 1
x_1_92 2.7382970729650697e+02
s_1_92 0
z_1_92 0.997261702927035
x_1_93 2.7188009405852063e+02
s_1_93 0
z_1_93 9.9728119905941481e-01
x_1_94 2.7266167329577729e+02
s_1_94 0
z_1_94 9.9727338326704229e-01
x_1_95 2.7348703233432025e+02
s_1_95 0
z_1_95 9.9726512967665681e-01
x_1_96 2.7252393313297944e+02
s_1_96 0
z_1_96 9.9727476066867016e-01
x_1_97 0
s_1_97 1.2031096686332603e+00
z_1_97 1
x_1_98 2.6994967331143562e+02
s_1_98 0
z_1_98 9.9730050326688557e-01
x_1_99 2.7260019996156916e+02
s_1_99 0
z_1_99 9.9727399800038430e-01
x_1_100 2.7262459554895759e+02
s_1_100 0
z_1_100 9.9727375404451046e-01
x_1_101 2.7173772008437663e+02
s_1_101 0
z_1_101 9.9728262279915625e-01
x_1_102 2.7294895476382226e+02
s_1_102 0
z_1_102 9.9727051045236181e-01
x_1_103 2.7474972827685997e+02
s_1_103 0
z_1_103 9.9725250271723143e-01
x_1_104 2.7353007453680038e+02
s_1_104 0
z_1_104 0.997264699254632
x_1_105 0
s_1_105 1.7364093319629319e+00
z_1_105 1
x_1_106 2.7412378039817850e+02
s_1_106 0
z_1_106 9.9725876219601828e-01
x_1_107 0
s_1_107 1.2440344882252248e+00
z_1_107 1
x_1_108 2.7022700177505612e+02
s_1_108 0
z_1_108 9.9729772998224941e-01
x_1_109 2.7339079057356867e+02
s_1_109 0
z_1_109 9.9726609209426431e-01
x_1_110 0
s_1_110 1.0834279931877973e+00
z_1_110 1
x_1_111 2.7460137969022617e+02
s_1_111 0
z_1_111 9.9725398620309780e-01
x_1_112 0
s_1_112 1.4300726869114442e+00
z_1_112 1
x_1_113 2.7149220482073724e+02
s_1_113 0
z_1_113 9.9728507795179266e-01
x_1_114 2.6966349362302572e+02
s_1_114 0
z_1_114 9.9730336506376971e-01
x_1_115 0
s_1_115 1.1912465851346496e+00
z_1_115 1
x_1_116 0
s_1_116 5.2286316989193438e-01
z_1_116 1
x_1_117 273.159419303076
s_1_117 0
z_1_117 9.9726840580696929e-01
x_1_118 2.7146918952932174e+02
s_1_118 0
z_1_118 9.9728530810470684e-01
x_1_119 4.9999411074234726e+04
s_1_119 5.0000588925765274e+04
z_1_119 5.0000588925765277e-01
x_1_120 49999.3794398841
s_1_120 50000.6205601159
z_1_120 0.500006205601159
x_1_121 0
s_1_121 1.5774098287802190e+00
z_1_121 1
x_1_122 2.7155554788233712e+02
s_1_122 0
z_1_122 9.9728444452117659e-01
x_1_123 4.9999271867477182e+04
s_1_123 5.0000728132522825e+04
z_1_123 5.0000728132522820e-01
x_1_124 0
s_1_124 1.8008283515227959e+00
z_1_124 1
x_1_125 0
s_1_125 1.1339074553616229e+00
z_1_125 1
x_1_126 0
s_1_126 1.3929891543230042e+00
z_1_126 1
x_1_127 4.9999619810902121e+04
s_1_127 5.0000380189097879e+04
z_1_127 5.0000380189097882e-01
x_1_128 0
s_1_128 1.4556710515753366e+00
z_1_128 1
x_1_129 2.7143513383436948e+02
s_1_129 0
z_1_129 9.9728564866165625e-01
x_1_130 272.179231563583
s_1_130 0
z_1_130 9.9727820768436415e-01
x_1_131 0
s_1_131 1.1432700304430909e+00
z_1_131 1
x_1_132 4.9999401253034855e+04
s_1_132 5.0000598746965145e+04
z_1_132 5.0000598746965141e-01
x_1_133 4.9999411852931109e+04
s_1_133 5.0000588147068891e+04
z_1_133 5.0000588147068892e-01
x_1_134 0
s_1_134 6.6871831833850592e-01
z_1_134 1
x_1_135 2.7325366416199540e+02
s_1_135 0
z_1_135 0.99726746335838
x_1_136 4.9999197994059294e+04
s_1_136 50000.8020059407
z_1_136 0.500008020059407
x_1_137 4.9999496786994860e+04
s_1_137 5.0000503213005148e+04
z_1_137 5.0000503213005143e-01
x_1_138 2.7283582659809326e+02
s_1_138 0
z_1_138 0.997271641734019
x_1_139 2.7386421055391838e+02
s_1_139 0
z_1_139 9.9726135789446080e-01
x_1_140 274.589757328853
s_1_140 0
z_1_140 9.9725410242671153e-01
x_1_141 0
s_1_141 1.5594539447411080e+00
z_1_141 1
x_1_142 2.7034137333475519e+02
s_1_142 0
z_1_142 9.9729658626665241e-01
x_1_143 4.9999541067270446e+04
s_1_143 5.0000458932729554e+04
z_1_143 5.0000458932729552e-01
x_1_144 2.7135227077733725e+02
s_1_144 0
z_1_144 9.9728647729222664e-01
x_1_145 2.7480369048798457e+02
s_1_145 0
z_1_145 9.9725196309512010e-01
x_1_146 0
s_1_146 7.9073936151689850e-01
z_1_146 1
x_1_147 2.6654801363730803e+02
s_1_147 0
z_1_147 9.9733451986362687e-01
x_1_148 0
s_1_148 9.7517400630749762e-01
z_1_148 1
x_1_149 2.7426079293433577e+02
s_1_149 0
z_1_149 9.9725739207065667e-01
x_1_150 2.7435411012917757e+02
s_1_150 0
z_1_150 9.9725645889870818e-01
x_1_151 2.7105528991624305e+02
s_1_151 0
z_1_151 9.9728944710083756e-01
x_1_152 0
s_1_152 1.3565280201146379e+00
z_1_152 1
x_1_153 0
s_1_153 1.5332377288723364e+00
z_1_153 1
x_1_154 271.620740497252
s_1_154 0
z_1_154 9.9728379259502753e-01
x_1_155 2.7405700748227537e+02
s_1_155 0
z_1_155 9.9725942992517724e-01
x_1_156 0
s_1_156 9.6960620139725506e-01
z_1_156 1
x_1_157 0
s_1_157 8.6141748743830249e-01
z_1_157 1
x_1_158 2.7204478276241571e+02
s_1_158 0
z_1_158 9.9727955217237585e-01
x_1_159 0
s_1_159 6.8463990656164242e-01
z_1_159 1
x_2_0 9.7671520357150308e+04
